(set-info :status unknown)
(declare-fun %Y () (_ BitVec 25))
(declare-fun %X () (_ BitVec 25))
(assert
 (let (($x2541 (and (distinct (bvurem ((_ zero_extend 36) %X) ((_ zero_extend 36) %Y)) ((_ zero_extend 36) (bvurem %X %Y))) true)))
 (and (and (distinct ((_ zero_extend 36) %Y) (_ bv0 61)) true) $x2541)))
(check-sat)
